#Gcode 2.10

m = Model(Ipopt.Optimizer)

@variable(m,x1)
@variable(m,x2)

@NLconstraint(m,  x1+x2*x2 >= 2.5)
@NLconstraint(m, 2*x1+x2 == 1)

@NLobjective(m,Max,-3x1^2-10x1+x2^2-3x2)

optimize!(m)

@show value(x1)
@show value(x2)
@show objective_value(m)


       
       This is Ipopt version 3.13.4, running with linear solver mumps.
NOTE: Other linear solvers might be more efficient (see Ipopt documentation).

Number of nonzeros in equality constraint Jacobian...:        2
Number of nonzeros in inequality constraint Jacobian.:        2
Number of nonzeros in Lagrangian Hessian.............:        3

Total number of variables............................:        2
                     variables with only lower bounds:        0
                variables with lower and upper bounds:        0
                     variables with only upper bounds:        0
Total number of equality constraints.................:        1
Total number of inequality constraints...............:        1
        inequality constraints with only lower bounds:        1
   inequality constraints with lower and upper bounds:        0
        inequality constraints with only upper bounds:        0

iter    objective    inf_pr   inf_du lg(mu)  ||d||  lg(rg) alpha_du alpha_pr  ls
   0  0.0000000e+00 2.50e+00 1.00e+00  -1.0 0.00e+00    -  0.00e+00 0.00e+00   0
   1 -3.7620589e+00 7.50e-01 1.72e+01  -1.0 4.74e+00    -  3.64e-02 2.50e-01h  3
   2 -9.1554327e+00 4.72e-02 1.10e+00  -1.0 3.74e-01    -  1.00e+00 9.37e-01h  1
   3 -9.6502734e+00 0.00e+00 2.86e-02  -1.0 9.85e-02    -  1.00e+00 1.00e+00h  1
   4 -9.5518887e+00 0.00e+00 1.29e-03  -2.5 9.85e-02    -  1.00e+00 1.00e+00f  1
   5 -9.5497612e+00 0.00e+00 1.60e-06  -5.7 9.51e-04    -  1.00e+00 1.00e+00h  1
   6 -9.5497599e+00 0.00e+00 8.94e-13  -8.6 7.97e-07    -  1.00e+00 1.00e+00h  1

Number of Iterations....: 6

                                   (scaled)                 (unscaled)
Objective...............:   9.5497598908098134e+00   -9.5497598908098134e+00
Dual infeasibility......:   8.9350749021832598e-13    8.9350749021832598e-13
Constraint violation....:   0.0000000000000000e+00    0.0000000000000000e+00
Complementarity.........:   2.5051364999612524e-09   -2.5051364999612524e-09
Overall NLP error.......:   2.5051364999612524e-09    8.9350749021832598e-13


Number of objective function evaluations             = 11
Number of objective gradient evaluations             = 7
Number of equality constraint evaluations            = 11
Number of inequality constraint evaluations          = 11
Number of equality constraint Jacobian evaluations   = 7
Number of inequality constraint Jacobian evaluations = 7
Number of Lagrangian Hessian evaluations             = 6
Total CPU secs in IPOPT (w/o function evaluations)   =      0.009
Total CPU secs in NLP function evaluations           =      0.000

EXIT: Optimal Solution Found.
value(x1) = 1.093070329507405
value(x2) = -1.1861406590148098
objective_value(m) = -9.549759890809813
